
  32    4
  10   10   10   10

   0   0   0   0   0   4 2 16 30 31 
   4   1   1   0   2   1 3 
   2   4   0   1   2   1 4 
   5   0   3   5   4   1 5 
   5   3   4   0   2   1 6 
   5   7   0   5   3   1 7 
   7   7   0   3   6   1 8 
   6   0   3   4   5   1 9 
   8   3   7   4   0   2 29 10 
  10   4   3   0  10   1 11 
   5   3   0   2   4   1 12 
   9   0   7   5   8   2 28 13 
   4   0   5   8   3   1 14 
   8   3   5   0   3   1 15 
   9   3   0   3   4   2 27 17 
   5   0   2   5   4   1 17 
  10   0   2   2   4   1 18 
   2   4   7   2   0   1 19 
   5   0   5   6   2   1 20 
   1   3   4   0   4   1 21 
  10   6   5   0   2   1 22 
   1   0   3   3   4   1 23 
   2   2   2   4   0   1 24 
   7   5   5   4   0   1 25 
   6   4   0   3   2   1 26 
   9   6   0   3   6   1 32
   9   4   4   5   0   1 32
   3   5   2   5   0   1 32
   1   0   4   5   3   1 32
   4   3   4   5   0   1 32
   7   0   5   4   5   1 32
   0   0   0   0   0   0 
